Route #1: 1 2 15 20 26 32 39 44 45 33 27 16 21 17 3 4 5 9 22 28 40 46 52 65 64 59 58 51 68 69 83 82 96 97 89 76 84 98 90 77 70 66 53 60 54 34 29 35 41 47 42 55 56 49 48 43 36 23 18 10 6 11 7 12 13 24 14 8 19 31 25 30 37 38 50 57 63 74 75 81 95 88 94 93 80 73 67 62 61 72 78 71 86 85 99 100 91 87 92 79
Cost 45895
